Cost:     855.76
Running time:     300.00

Solution: 
0     17     40      9     39     72     58     12      0      
0     11     66     65     38     10      0      
0      6     33     63     23     56     24     49     16      0      
0     52     13     54     19     59     14     53      0      
0      3     44     32     50     18     55     25     31      0      
0     51     73      1     43     41     42     64     22     62      0      
0     75      4     45     29     30      2      0      
0     27     57     15     20     70     60     71     69     47     48      0      
0     68     74     28     61     21     36     37      5      0      
0     26     67     34     46      8     35      7      0      
